
Starting CP-SAT solver v9.14.6206
Parameters: max_time_in_seconds: 600 log_search_progress: true relative_gap_limit: 0
Setting number of workers to 20

Initial optimization model '': (model_fingerprint: 0x493b04be6a2e6530)
#Variables: 421 (#ints: 1 in objective) (321 primary variables)
  - 80 in [0,12410]
  - 16 in [0,62050]
  - 1 in [0,198560]
  - 1 in [0,1191360]
  - 2 in [0,1389920]
  - 320 in [1440,12410]
  - 1 constants in {0} 
#kInterval: 160
#kLinMax: 48 (#expressions: 96)
#kLinear1: 17
#kLinear2: 192
#kLinear3: 2
#kLinearN: 2 (#terms: 50)
#kNoOverlap: 10 (#intervals: 160)

Starting presolve at 0.00s
  6.97e-05s  0.00e+00d  [DetectDominanceRelations] 
  2.01e-03s  0.00e+00d  [operations_research::sat::CpModelPresolver::PresolveToFixPoint] #num_loops=10 #num_dual_strengthening=1 
  7.30e-06s  0.00e+00d  [operations_research::sat::CpModelPresolver::ExtractEncodingFromLinear] 
  2.34e-05s  0.00e+00d  [operations_research::sat::CpModelPresolver::DetectDuplicateColumns] 
  1.03e-04s  0.00e+00d  [operations_research::sat::CpModelPresolver::DetectDuplicateConstraints] 
[Symmetry] Graph for symmetry has 983 nodes and 945 arcs.
[Symmetry] Symmetry computation done. time: 9.45e-05 dtime: 0.00014194
  8.27e-05s  0.00e+00d  [operations_research::sat::CpModelPresolver::DetectDuplicateConstraintsWithDifferentEnforcements] 
  6.91e-04s  2.32e-06d  [operations_research::sat::CpModelPresolver::Probe] 
  8.70e-06s  0.00e+00d  [MaxClique] 
  5.44e-05s  0.00e+00d  [DetectDominanceRelations] 
  4.46e-04s  0.00e+00d  [operations_research::sat::CpModelPresolver::PresolveToFixPoint] #num_loops=1 #num_dual_strengthening=1 
  3.95e-05s  0.00e+00d  [operations_research::sat::CpModelPresolver::ProcessAtMostOneAndLinear] 
  6.12e-05s  0.00e+00d  [operations_research::sat::CpModelPresolver::DetectDuplicateConstraints] 
  5.94e-05s  0.00e+00d  [operations_research::sat::CpModelPresolver::DetectDuplicateConstraintsWithDifferentEnforcements] 
  3.69e-05s  1.14e-06d  [operations_research::sat::CpModelPresolver::DetectDominatedLinearConstraints] #relevant_constraints=189 
  3.30e-05s  0.00e+00d  [operations_research::sat::CpModelPresolver::DetectDifferentVariables] 
  3.50e-06s  0.00e+00d  [operations_research::sat::CpModelPresolver::ProcessSetPPC] 
  4.70e-06s  0.00e+00d  [operations_research::sat::CpModelPresolver::FindAlmostIdenticalLinearConstraints] 
  1.12e-05s  0.00e+00d  [operations_research::sat::CpModelPresolver::FindBigAtMostOneAndLinearOverlap] 
  2.28e-05s  6.69e-06d  [operations_research::sat::CpModelPresolver::FindBigVerticalLinearOverlap] 
  1.13e-05s  0.00e+00d  [operations_research::sat::CpModelPresolver::FindBigHorizontalLinearOverlap] 
  6.30e-06s  0.00e+00d  [operations_research::sat::CpModelPresolver::MergeClauses] 
  5.25e-05s  0.00e+00d  [DetectDominanceRelations] 
  3.15e-04s  0.00e+00d  [operations_research::sat::CpModelPresolver::PresolveToFixPoint] #num_loops=1 #num_dual_strengthening=1 
  4.94e-05s  0.00e+00d  [DetectDominanceRelations] 
  3.09e-04s  0.00e+00d  [operations_research::sat::CpModelPresolver::PresolveToFixPoint] #num_loops=1 #num_dual_strengthening=1 
  1.73e-05s  0.00e+00d  [operations_research::sat::CpModelPresolver::DetectDuplicateColumns] 
  6.16e-05s  0.00e+00d  [operations_research::sat::CpModelPresolver::DetectDuplicateConstraints] 
[Symmetry] Graph for symmetry has 940 nodes and 858 arcs.
[Symmetry] Symmetry computation done. time: 5.35e-05 dtime: 0.00013545
  6.33e-05s  0.00e+00d  [operations_research::sat::CpModelPresolver::DetectDuplicateConstraintsWithDifferentEnforcements] 
  4.72e-04s  1.87e-06d  [operations_research::sat::CpModelPresolver::Probe] 
  3.30e-06s  0.00e+00d  [MaxClique] 
  5.35e-05s  0.00e+00d  [DetectDominanceRelations] 
  3.21e-04s  0.00e+00d  [operations_research::sat::CpModelPresolver::PresolveToFixPoint] #num_loops=1 #num_dual_strengthening=1 
  3.88e-05s  0.00e+00d  [operations_research::sat::CpModelPresolver::ProcessAtMostOneAndLinear] 
  6.41e-05s  0.00e+00d  [operations_research::sat::CpModelPresolver::DetectDuplicateConstraints] 
  7.09e-05s  0.00e+00d  [operations_research::sat::CpModelPresolver::DetectDuplicateConstraintsWithDifferentEnforcements] 
  3.47e-05s  1.14e-06d  [operations_research::sat::CpModelPresolver::DetectDominatedLinearConstraints] #relevant_constraints=189 
  3.21e-05s  0.00e+00d  [operations_research::sat::CpModelPresolver::DetectDifferentVariables] 
  3.20e-06s  0.00e+00d  [operations_research::sat::CpModelPresolver::ProcessSetPPC] 
  4.30e-06s  0.00e+00d  [operations_research::sat::CpModelPresolver::FindAlmostIdenticalLinearConstraints] 
  1.08e-05s  0.00e+00d  [operations_research::sat::CpModelPresolver::FindBigAtMostOneAndLinearOverlap] 
  2.46e-05s  6.69e-06d  [operations_research::sat::CpModelPresolver::FindBigVerticalLinearOverlap] 
  2.80e-06s  0.00e+00d  [operations_research::sat::CpModelPresolver::FindBigHorizontalLinearOverlap] 
  5.30e-06s  0.00e+00d  [operations_research::sat::CpModelPresolver::MergeClauses] 
  5.30e-05s  0.00e+00d  [DetectDominanceRelations] 
  3.20e-04s  0.00e+00d  [operations_research::sat::CpModelPresolver::PresolveToFixPoint] #num_loops=1 #num_dual_strengthening=1 
  1.52e-05s  0.00e+00d  [operations_research::sat::CpModelPresolver::ExpandObjective] 

Presolve summary:
  - 206 affine relations were detected.
  - rule 'TODO dual: only one blocking constraint?' was applied 288 times.
  - rule 'TODO dual: only one unspecified blocking constraint?' was applied 225 times.
  - rule 'affine: new relation' was applied 206 times.
  - rule 'lin_max: converted to equality' was applied 3 times.
  - rule 'lin_max: removed exprs' was applied 3 times.
  - rule 'lin_max: rewrite with precedences' was applied 45 times.
  - rule 'lin_max: target domain reduced' was applied 48 times.
  - rule 'linear: always true' was applied 65 times.
  - rule 'linear: doubleton free' was applied 2 times.
  - rule 'linear: empty' was applied 3 times.
  - rule 'linear: fixed or dup variables' was applied 10 times.
  - rule 'linear: reduced variable domains' was applied 929 times.
  - rule 'linear: remapped using affine relations' was applied 338 times.
  - rule 'linear: variable substitution 0' was applied 1 time.
  - rule 'linear: variable substitution 1' was applied 2 times.
  - rule 'presolve: 7 unused variables removed.' was applied 1 time.
  - rule 'presolve: iteration' was applied 2 times.

Presolved optimization model '': (model_fingerprint: 0x9b2a0dc235ca8b91)
#Variables: 205 (#ints: 45 in objective) (160 primary variables)
  - 145 different domains in [0,12389] with a largest complexity of 1.
#kInterval: 160
#kLinear2: 189
#kNoOverlap: 10 (#intervals: 160)
[Symmetry] Graph for symmetry has 724 nodes and 858 arcs.
[Symmetry] Symmetry computation done. time: 5.62e-05 dtime: 0.00012249

Preloading model.
#Bound   0.01s best:inf   next:[0,764770] initial_domain
#Model   0.01s var:205/205 constraints:359/359

Starting search at 0.01s with 20 workers.
13 full problem subsolvers: [core, default_lp, fixed, lb_tree_search, max_lp, no_lp, objective_lb_search, objective_shaving_no_lp, probing, pseudo_costs, quick_restart, quick_restart_no_lp, reduced_costs]
7 first solution subsolvers: [fj(2), fj_lin, fs_random, fs_random_no_lp, fs_random_quick_restart, fs_random_quick_restart_no_lp]
17 interleaved subsolvers: [feasibility_pump, graph_arc_lns, graph_cst_lns, graph_dec_lns, graph_var_lns, lb_relax_lns, ls(2), ls_lin, rins/rens, rnd_cst_lns, rnd_var_lns, scheduling_intervals_lns, scheduling_precedences_lns, scheduling_resource_windows_lns, scheduling_time_window_lns, variables_shaving]
3 helper subsolvers: [neighborhood_helper, synchronization_agent, update_gap_integral]

#1       0.02s best:0     next:[]         core
#Done    0.02s core

Task timing                                  n [     min,      max]      avg      dev     time         n [     min,      max]      avg      dev    dtime
                             'core':         1 [  7.53ms,   7.53ms]   7.53ms   0.00ns   7.53ms         1 [260.97us, 260.97us] 260.97us   0.00ns 260.97us
                       'default_lp':         1 [  8.16ms,   8.16ms]   8.16ms   0.00ns   8.16ms         0 [  0.00ns,   0.00ns]   0.00ns   0.00ns   0.00ns
                 'feasibility_pump':         1 [  4.17ms,   4.17ms]   4.17ms   0.00ns   4.17ms         0 [  0.00ns,   0.00ns]   0.00ns   0.00ns   0.00ns
                            'fixed':         1 [  7.91ms,   7.91ms]   7.91ms   0.00ns   7.91ms         0 [  0.00ns,   0.00ns]   0.00ns   0.00ns   0.00ns
                               'fj':         0 [  0.00ns,   0.00ns]   0.00ns   0.00ns   0.00ns         0 [  0.00ns,   0.00ns]   0.00ns   0.00ns   0.00ns
                               'fj':         1 [  2.21ms,   2.21ms]   2.21ms   0.00ns   2.21ms         0 [  0.00ns,   0.00ns]   0.00ns   0.00ns   0.00ns
                           'fj_lin':         0 [  0.00ns,   0.00ns]   0.00ns   0.00ns   0.00ns         0 [  0.00ns,   0.00ns]   0.00ns   0.00ns   0.00ns
                        'fs_random':         1 [  5.29ms,   5.29ms]   5.29ms   0.00ns   5.29ms         0 [  0.00ns,   0.00ns]   0.00ns   0.00ns   0.00ns
                  'fs_random_no_lp':         1 [  4.20ms,   4.20ms]   4.20ms   0.00ns   4.20ms         0 [  0.00ns,   0.00ns]   0.00ns   0.00ns   0.00ns
          'fs_random_quick_restart':         1 [  3.20ms,   3.20ms]   3.20ms   0.00ns   3.20ms         0 [  0.00ns,   0.00ns]   0.00ns   0.00ns   0.00ns
    'fs_random_quick_restart_no_lp':         1 [  2.67ms,   2.67ms]   2.67ms   0.00ns   2.67ms         0 [  0.00ns,   0.00ns]   0.00ns   0.00ns   0.00ns
                    'graph_arc_lns':         0 [  0.00ns,   0.00ns]   0.00ns   0.00ns   0.00ns         0 [  0.00ns,   0.00ns]   0.00ns   0.00ns   0.00ns
                    'graph_cst_lns':         0 [  0.00ns,   0.00ns]   0.00ns   0.00ns   0.00ns         0 [  0.00ns,   0.00ns]   0.00ns   0.00ns   0.00ns
                    'graph_dec_lns':         0 [  0.00ns,   0.00ns]   0.00ns   0.00ns   0.00ns         0 [  0.00ns,   0.00ns]   0.00ns   0.00ns   0.00ns
                    'graph_var_lns':         0 [  0.00ns,   0.00ns]   0.00ns   0.00ns   0.00ns         0 [  0.00ns,   0.00ns]   0.00ns   0.00ns   0.00ns
                     'lb_relax_lns':         0 [  0.00ns,   0.00ns]   0.00ns   0.00ns   0.00ns         0 [  0.00ns,   0.00ns]   0.00ns   0.00ns   0.00ns
                   'lb_tree_search':         1 [  8.47ms,   8.47ms]   8.47ms   0.00ns   8.47ms         0 [  0.00ns,   0.00ns]   0.00ns   0.00ns   0.00ns
                               'ls':         0 [  0.00ns,   0.00ns]   0.00ns   0.00ns   0.00ns         0 [  0.00ns,   0.00ns]   0.00ns   0.00ns   0.00ns
                               'ls':         0 [  0.00ns,   0.00ns]   0.00ns   0.00ns   0.00ns         0 [  0.00ns,   0.00ns]   0.00ns   0.00ns   0.00ns
                           'ls_lin':         0 [  0.00ns,   0.00ns]   0.00ns   0.00ns   0.00ns         0 [  0.00ns,   0.00ns]   0.00ns   0.00ns   0.00ns
                           'max_lp':         1 [  9.73ms,   9.73ms]   9.73ms   0.00ns   9.73ms         1 [ 30.09us,  30.09us]  30.09us   0.00ns  30.09us
                            'no_lp':         1 [  7.43ms,   7.43ms]   7.43ms   0.00ns   7.43ms         0 [  0.00ns,   0.00ns]   0.00ns   0.00ns   0.00ns
              'objective_lb_search':         1 [  4.88ms,   4.88ms]   4.88ms   0.00ns   4.88ms         0 [  0.00ns,   0.00ns]   0.00ns   0.00ns   0.00ns
          'objective_shaving_no_lp':         1 [  4.27ms,   4.27ms]   4.27ms   0.00ns   4.27ms         0 [  0.00ns,   0.00ns]   0.00ns   0.00ns   0.00ns
                          'probing':         1 [  8.37ms,   8.37ms]   8.37ms   0.00ns   8.37ms         0 [  0.00ns,   0.00ns]   0.00ns   0.00ns   0.00ns
                     'pseudo_costs':         1 [  8.13ms,   8.13ms]   8.13ms   0.00ns   8.13ms         1 [890.00ns, 890.00ns] 890.00ns   0.00ns 890.00ns
                    'quick_restart':         1 [  6.76ms,   6.76ms]   6.76ms   0.00ns   6.76ms         0 [  0.00ns,   0.00ns]   0.00ns   0.00ns   0.00ns
              'quick_restart_no_lp':         1 [  5.84ms,   5.84ms]   5.84ms   0.00ns   5.84ms         0 [  0.00ns,   0.00ns]   0.00ns   0.00ns   0.00ns
                    'reduced_costs':         1 [  8.69ms,   8.69ms]   8.69ms   0.00ns   8.69ms         0 [  0.00ns,   0.00ns]   0.00ns   0.00ns   0.00ns
                        'rins/rens':         0 [  0.00ns,   0.00ns]   0.00ns   0.00ns   0.00ns         0 [  0.00ns,   0.00ns]   0.00ns   0.00ns   0.00ns
                      'rnd_cst_lns':         0 [  0.00ns,   0.00ns]   0.00ns   0.00ns   0.00ns         0 [  0.00ns,   0.00ns]   0.00ns   0.00ns   0.00ns
                      'rnd_var_lns':         0 [  0.00ns,   0.00ns]   0.00ns   0.00ns   0.00ns         0 [  0.00ns,   0.00ns]   0.00ns   0.00ns   0.00ns
         'scheduling_intervals_lns':         0 [  0.00ns,   0.00ns]   0.00ns   0.00ns   0.00ns         0 [  0.00ns,   0.00ns]   0.00ns   0.00ns   0.00ns
       'scheduling_precedences_lns':         0 [  0.00ns,   0.00ns]   0.00ns   0.00ns   0.00ns         0 [  0.00ns,   0.00ns]   0.00ns   0.00ns   0.00ns
  'scheduling_resource_windows_lns':         0 [  0.00ns,   0.00ns]   0.00ns   0.00ns   0.00ns         0 [  0.00ns,   0.00ns]   0.00ns   0.00ns   0.00ns
       'scheduling_time_window_lns':         0 [  0.00ns,   0.00ns]   0.00ns   0.00ns   0.00ns         0 [  0.00ns,   0.00ns]   0.00ns   0.00ns   0.00ns
                'variables_shaving':         1 [  4.48ms,   4.48ms]   4.48ms   0.00ns   4.48ms         0 [  0.00ns,   0.00ns]   0.00ns   0.00ns   0.00ns

Search stats                        Bools  Conflicts  Branches  Restarts  BoolPropag  IntegerPropag
                           'core':    189          0       217         2          17          1'482
                     'default_lp':     43          0        42         0           0          1'397
                          'fixed':     17          0        17         0           0            965
                      'fs_random':      0          0         0         0           0              0
                'fs_random_no_lp':      0          0         0         0           0              0
        'fs_random_quick_restart':      0          0         0         0           0              0
  'fs_random_quick_restart_no_lp':      0          0         0         0           0              0
                 'lb_tree_search':  1'200          0         0         0           0              0
                         'max_lp':      0          0         0         0           0              0
                          'no_lp':    106          0       106         0           0          2'301
            'objective_lb_search':      0          0         0         0           0              0
                        'probing':  1'200          0         0         0           0              0
                   'pseudo_costs':      0          0         0         0           0              0
                  'quick_restart':      0          0         0         0           0              0
            'quick_restart_no_lp':     38          0        38         0           0          1'481
                  'reduced_costs':  1'200          0         0         0           0              0

SAT stats                           ClassicMinim  LitRemoved  LitLearned  LitForgotten  Subsumed  MClauses  MDecisions  MLitTrue  MSubsumed  MLitRemoved  MReused
                           'core':             0           0           0             0         0         0           0         0          0            0        0
                     'default_lp':             0           0           0             0         0         0           0         0          0            0        0
                          'fixed':             0           0           0             0         0         0           0         0          0            0        0
                      'fs_random':             0           0           0             0         0         0           0         0          0            0        0
                'fs_random_no_lp':             0           0           0             0         0         0           0         0          0            0        0
        'fs_random_quick_restart':             0           0           0             0         0         0           0         0          0            0        0
  'fs_random_quick_restart_no_lp':             0           0           0             0         0         0           0         0          0            0        0
                 'lb_tree_search':             0           0           0             0         0         0           0         0          0            0        0
                         'max_lp':             0           0           0             0         0         0           0         0          0            0        0
                          'no_lp':             0           0           0             0         0         0           0         0          0            0        0
            'objective_lb_search':             0           0           0             0         0         0           0         0          0            0        0
                        'probing':             0           0           0             0         0         0           0         0          0            0        0
                   'pseudo_costs':             0           0           0             0         0         0           0         0          0            0        0
                  'quick_restart':             0           0           0             0         0         0           0         0          0            0        0
            'quick_restart_no_lp':             0           0           0             0         0         0           0         0          0            0        0
                  'reduced_costs':             0           0           0             0         0         0           0         0          0            0        0

Lp stats            Component  Iterations  AddedCuts  OPTIMAL  DUAL_F.  DUAL_U.
     'default_lp':         16         133          0      282        0        0
          'fixed':         16         122          0      236        0        0
         'max_lp':          1         161         22        3        0        0
   'pseudo_costs':          1          29        129        3        0        0
  'quick_restart':         16          15          0       16        0        0

Lp dimension        Final dimension of first component
     'default_lp':       1 rows, 12 columns, 2 entries
          'fixed':       1 rows, 12 columns, 2 entries
         'max_lp':  205 rows, 205 columns, 445 entries
   'pseudo_costs':   36 rows, 205 columns, 108 entries
  'quick_restart':       1 rows, 12 columns, 2 entries

Lp debug            CutPropag  CutEqPropag  Adjust  Overflow  Bad  BadScaling
     'default_lp':          0            0       0         0    0           0
          'fixed':          0            0       0         0    0           0
         'max_lp':          0            0       0         0  184           0
   'pseudo_costs':          0            0       0         0    0           0
  'quick_restart':          0            0       0         0    0           0

Lp pool             Constraints  Updates  Simplif  Merged  Shortened  Split  Strenghtened  Cuts/Call
     'default_lp':          189        0        0       0          0      0             0        0/0
          'fixed':          189        0        0       0          0      0             0        0/0
         'max_lp':          211        0        0       0          0      0             0      22/32
   'pseudo_costs':          318        0        0       0          0      0             0    129/150
  'quick_restart':          189        0        0       0          0      0             0        0/0

Lp Cut                                                max_lp  pseudo_costs
                  NoOverlapCompletionTimeExhaustive:       2             1
           NoOverlapCompletionTimeExhaustive_lifted:       -             4
  NoOverlapCompletionTimeExhaustive_lifted_weighted:       4            20
         NoOverlapCompletionTimeExhaustive_weighted:       1             4
                    NoOverlapCompletionTimeQueyrane:       3            18
             NoOverlapCompletionTimeQueyrane_lifted:       4            32
                        NoOverlapDisjunctionOnStart:       8            50

LNS stats                             Improv/Calls  Closed  Difficulty  TimeLimit
                    'graph_arc_lns':           0/0      0%    5.00e-01       0.10
                    'graph_cst_lns':           0/0      0%    5.00e-01       0.10
                    'graph_dec_lns':           0/0      0%    5.00e-01       0.10
                    'graph_var_lns':           0/0      0%    5.00e-01       0.10
                     'lb_relax_lns':           0/0      0%    5.00e-01       0.50
                        'rins/rens':           0/0      0%    5.00e-01       0.10
                      'rnd_cst_lns':           0/0      0%    5.00e-01       0.10
                      'rnd_var_lns':           0/0      0%    5.00e-01       0.10
         'scheduling_intervals_lns':           0/0      0%    5.00e-01       0.10
       'scheduling_precedences_lns':           0/0      0%    5.00e-01       0.10
  'scheduling_resource_windows_lns':           0/0      0%    5.00e-01       0.10
       'scheduling_time_window_lns':           0/0      0%    5.00e-01       0.10

Solutions (1)    Num   Rank
        'core':    1  [1,1]

Objective bounds     Num
  'initial_domain':    1

Solution repositories    Added  Queried  Synchro
  'feasible solutions':      1        0        1
   'fj solution hints':      0        0        0
        'lp solutions':      0        0        0
                'pump':      0        0

CpSolverResponse summary:
status: OPTIMAL
objective: 0
best_bound: 0
integers: 222
booleans: 43
conflicts: 0
branches: 42
propagations: 0
integer_propagations: 1397
restarts: 0
lp_iterations: 133
walltime: 0.0446344
usertime: 0.0446344
deterministic_time: 0.000311794
gap_integral: 0.00353539
solution_fingerprint: 0x7660a620ab9c9aa

